outputs/case_283.model.txt
consumer_loan_limit = 10000000
paid_in_capital = 1000000000
unsecured_credit_to_related_parties = 30000000
central_authority_threshold = 6000000003/100
unsecured_consumer_loan = 5000000
board_meeting_attendance_ratio = 3/5
secured_credit_to_related_parties = 60000000
board_approval_ratio = 7/10
internal_operation_executed = True
internal_handling_established = True
collateral_condition_advantage = False
no_unsecured_credit_over_3_percent = True
internal_operation_ok = True
internal_handling_ok = True
internal_control_executed = True
major_shareholder_definition = True
full_collateral_provided = True
secured_credit_over_5_percent_requirements = True
penalty = False
internal_control_established = True
internal_handling_executed = True
internal_operation_established = True
internal_control_ok = True
/0 = [(60000000, 1000000000) -> 3/50, else -> 3/100]